c n orig vars 92
p cnf 401 1286
93 -1 0
93 -2 0
-93 1 2 0
94 -3 0
94 -4 0
-94 3 4 0
95 -5 0
95 -6 0
-95 5 6 0
96 -7 0
96 -8 0
-96 7 8 0
97 -9 0
97 -10 0
-97 9 10 0
98 -11 0
98 -12 0
-98 11 12 0
99 -13 0
99 -14 0
-99 13 14 0
100 -15 0
100 -16 0
-100 15 16 0
101 -17 0
101 -18 0
-101 17 18 0
102 -19 0
102 -20 0
-102 19 20 0
-103 93 0
-103 94 0
-103 95 0
-103 96 0
-103 97 0
-103 98 0
-103 99 0
-103 100 0
-103 101 0
-103 102 0
103 -93 -94 -95 -96 -97 -98 -99 -100 -101 -102 0
-103 0
104 -21 0
104 -30 0
104 -39 0
104 -48 0
104 -57 0
104 -66 0
104 -75 0
104 -84 0
-104 21 30 39 48 57 66 75 84 0
105 -22 0
105 -31 0
105 -40 0
105 -49 0
105 -58 0
105 -67 0
105 -76 0
105 -85 0
-105 22 31 40 49 58 67 76 85 0
106 -23 0
106 -32 0
106 -41 0
106 -50 0
106 -59 0
106 -68 0
106 -77 0
106 -86 0
-106 23 32 41 50 59 68 77 86 0
107 -24 0
107 -33 0
107 -42 0
107 -51 0
107 -60 0
107 -69 0
107 -78 0
107 -87 0
-107 24 33 42 51 60 69 78 87 0
108 -25 0
108 -34 0
108 -43 0
108 -52 0
108 -61 0
108 -70 0
108 -79 0
108 -88 0
-108 25 34 43 52 61 70 79 88 0
109 -26 0
109 -35 0
109 -44 0
109 -53 0
109 -62 0
109 -71 0
109 -80 0
109 -89 0
-109 26 35 44 53 62 71 80 89 0
110 -27 0
110 -36 0
110 -45 0
110 -54 0
110 -63 0
110 -72 0
110 -81 0
110 -90 0
-110 27 36 45 54 63 72 81 90 0
111 -28 0
111 -37 0
111 -46 0
111 -55 0
111 -64 0
111 -73 0
111 -82 0
111 -91 0
-111 28 37 46 55 64 73 82 91 0
112 -29 0
112 -38 0
112 -47 0
112 -56 0
112 -65 0
112 -74 0
112 -83 0
112 -92 0
-112 29 38 47 56 65 74 83 92 0
113 21 0
113 22 0
-113 -21 -22 0
114 21 0
114 23 0
-114 -21 -23 0
115 21 0
115 24 0
-115 -21 -24 0
116 21 0
116 25 0
-116 -21 -25 0
117 21 0
117 26 0
-117 -21 -26 0
118 21 0
118 27 0
-118 -21 -27 0
119 21 0
119 28 0
-119 -21 -28 0
120 21 0
120 29 0
-120 -21 -29 0
121 22 0
121 23 0
-121 -22 -23 0
122 22 0
122 24 0
-122 -22 -24 0
123 22 0
123 25 0
-123 -22 -25 0
124 22 0
124 26 0
-124 -22 -26 0
125 22 0
125 27 0
-125 -22 -27 0
126 22 0
126 28 0
-126 -22 -28 0
127 22 0
127 29 0
-127 -22 -29 0
128 23 0
128 24 0
-128 -23 -24 0
129 23 0
129 25 0
-129 -23 -25 0
130 23 0
130 26 0
-130 -23 -26 0
131 23 0
131 27 0
-131 -23 -27 0
132 23 0
132 28 0
-132 -23 -28 0
133 23 0
133 29 0
-133 -23 -29 0
134 24 0
134 25 0
-134 -24 -25 0
135 24 0
135 26 0
-135 -24 -26 0
136 24 0
136 27 0
-136 -24 -27 0
137 24 0
137 28 0
-137 -24 -28 0
138 24 0
138 29 0
-138 -24 -29 0
139 25 0
139 26 0
-139 -25 -26 0
140 25 0
140 27 0
-140 -25 -27 0
141 25 0
141 28 0
-141 -25 -28 0
142 25 0
142 29 0
-142 -25 -29 0
143 26 0
143 27 0
-143 -26 -27 0
144 26 0
144 28 0
-144 -26 -28 0
145 26 0
145 29 0
-145 -26 -29 0
146 27 0
146 28 0
-146 -27 -28 0
147 27 0
147 29 0
-147 -27 -29 0
148 28 0
148 29 0
-148 -28 -29 0
149 30 0
149 31 0
-149 -30 -31 0
150 30 0
150 32 0
-150 -30 -32 0
151 30 0
151 33 0
-151 -30 -33 0
152 30 0
152 34 0
-152 -30 -34 0
153 30 0
153 35 0
-153 -30 -35 0
154 30 0
154 36 0
-154 -30 -36 0
155 30 0
155 37 0
-155 -30 -37 0
156 30 0
156 38 0
-156 -30 -38 0
157 31 0
157 32 0
-157 -31 -32 0
158 31 0
158 33 0
-158 -31 -33 0
159 31 0
159 34 0
-159 -31 -34 0
160 31 0
160 35 0
-160 -31 -35 0
161 31 0
161 36 0
-161 -31 -36 0
162 31 0
162 37 0
-162 -31 -37 0
163 31 0
163 38 0
-163 -31 -38 0
164 32 0
164 33 0
-164 -32 -33 0
165 32 0
165 34 0
-165 -32 -34 0
166 32 0
166 35 0
-166 -32 -35 0
167 32 0
167 36 0
-167 -32 -36 0
168 32 0
168 37 0
-168 -32 -37 0
169 32 0
169 38 0
-169 -32 -38 0
170 33 0
170 34 0
-170 -33 -34 0
171 33 0
171 35 0
-171 -33 -35 0
172 33 0
172 36 0
-172 -33 -36 0
173 33 0
173 37 0
-173 -33 -37 0
174 33 0
174 38 0
-174 -33 -38 0
175 34 0
175 35 0
-175 -34 -35 0
176 34 0
176 36 0
-176 -34 -36 0
177 34 0
177 37 0
-177 -34 -37 0
178 34 0
178 38 0
-178 -34 -38 0
179 35 0
179 36 0
-179 -35 -36 0
180 35 0
180 37 0
-180 -35 -37 0
181 35 0
181 38 0
-181 -35 -38 0
182 36 0
182 37 0
-182 -36 -37 0
183 36 0
183 38 0
-183 -36 -38 0
184 37 0
184 38 0
-184 -37 -38 0
185 39 0
185 40 0
-185 -39 -40 0
186 39 0
186 41 0
-186 -39 -41 0
187 39 0
187 42 0
-187 -39 -42 0
188 39 0
188 43 0
-188 -39 -43 0
189 39 0
189 44 0
-189 -39 -44 0
190 39 0
190 45 0
-190 -39 -45 0
191 39 0
191 46 0
-191 -39 -46 0
192 39 0
192 47 0
-192 -39 -47 0
193 40 0
193 41 0
-193 -40 -41 0
194 40 0
194 42 0
-194 -40 -42 0
195 40 0
195 43 0
-195 -40 -43 0
196 40 0
196 44 0
-196 -40 -44 0
197 40 0
197 45 0
-197 -40 -45 0
198 40 0
198 46 0
-198 -40 -46 0
199 40 0
199 47 0
-199 -40 -47 0
200 41 0
200 42 0
-200 -41 -42 0
201 41 0
201 43 0
-201 -41 -43 0
202 41 0
202 44 0
-202 -41 -44 0
203 41 0
203 45 0
-203 -41 -45 0
204 41 0
204 46 0
-204 -41 -46 0
205 41 0
205 47 0
-205 -41 -47 0
206 42 0
206 43 0
-206 -42 -43 0
207 42 0
207 44 0
-207 -42 -44 0
208 42 0
208 45 0
-208 -42 -45 0
209 42 0
209 46 0
-209 -42 -46 0
210 42 0
210 47 0
-210 -42 -47 0
211 43 0
211 44 0
-211 -43 -44 0
212 43 0
212 45 0
-212 -43 -45 0
213 43 0
213 46 0
-213 -43 -46 0
214 43 0
214 47 0
-214 -43 -47 0
215 44 0
215 45 0
-215 -44 -45 0
216 44 0
216 46 0
-216 -44 -46 0
217 44 0
217 47 0
-217 -44 -47 0
218 45 0
218 46 0
-218 -45 -46 0
219 45 0
219 47 0
-219 -45 -47 0
220 46 0
220 47 0
-220 -46 -47 0
221 48 0
221 49 0
-221 -48 -49 0
222 48 0
222 50 0
-222 -48 -50 0
223 48 0
223 51 0
-223 -48 -51 0
224 48 0
224 52 0
-224 -48 -52 0
225 48 0
225 53 0
-225 -48 -53 0
226 48 0
226 54 0
-226 -48 -54 0
227 48 0
227 55 0
-227 -48 -55 0
228 48 0
228 56 0
-228 -48 -56 0
229 49 0
229 50 0
-229 -49 -50 0
230 49 0
230 51 0
-230 -49 -51 0
231 49 0
231 52 0
-231 -49 -52 0
232 49 0
232 53 0
-232 -49 -53 0
233 49 0
233 54 0
-233 -49 -54 0
234 49 0
234 55 0
-234 -49 -55 0
235 49 0
235 56 0
-235 -49 -56 0
236 50 0
236 51 0
-236 -50 -51 0
237 50 0
237 52 0
-237 -50 -52 0
238 50 0
238 53 0
-238 -50 -53 0
239 50 0
239 54 0
-239 -50 -54 0
240 50 0
240 55 0
-240 -50 -55 0
241 50 0
241 56 0
-241 -50 -56 0
242 51 0
242 52 0
-242 -51 -52 0
243 51 0
243 53 0
-243 -51 -53 0
244 51 0
244 54 0
-244 -51 -54 0
245 51 0
245 55 0
-245 -51 -55 0
246 51 0
246 56 0
-246 -51 -56 0
247 52 0
247 53 0
-247 -52 -53 0
248 52 0
248 54 0
-248 -52 -54 0
249 52 0
249 55 0
-249 -52 -55 0
250 52 0
250 56 0
-250 -52 -56 0
251 53 0
251 54 0
-251 -53 -54 0
252 53 0
252 55 0
-252 -53 -55 0
253 53 0
253 56 0
-253 -53 -56 0
254 54 0
254 55 0
-254 -54 -55 0
255 54 0
255 56 0
-255 -54 -56 0
256 55 0
256 56 0
-256 -55 -56 0
257 57 0
257 58 0
-257 -57 -58 0
258 57 0
258 59 0
-258 -57 -59 0
259 57 0
259 60 0
-259 -57 -60 0
260 57 0
260 61 0
-260 -57 -61 0
261 57 0
261 62 0
-261 -57 -62 0
262 57 0
262 63 0
-262 -57 -63 0
263 57 0
263 64 0
-263 -57 -64 0
264 57 0
264 65 0
-264 -57 -65 0
265 58 0
265 59 0
-265 -58 -59 0
266 58 0
266 60 0
-266 -58 -60 0
267 58 0
267 61 0
-267 -58 -61 0
268 58 0
268 62 0
-268 -58 -62 0
269 58 0
269 63 0
-269 -58 -63 0
270 58 0
270 64 0
-270 -58 -64 0
271 58 0
271 65 0
-271 -58 -65 0
272 59 0
272 60 0
-272 -59 -60 0
273 59 0
273 61 0
-273 -59 -61 0
274 59 0
274 62 0
-274 -59 -62 0
275 59 0
275 63 0
-275 -59 -63 0
276 59 0
276 64 0
-276 -59 -64 0
277 59 0
277 65 0
-277 -59 -65 0
278 60 0
278 61 0
-278 -60 -61 0
279 60 0
279 62 0
-279 -60 -62 0
280 60 0
280 63 0
-280 -60 -63 0
281 60 0
281 64 0
-281 -60 -64 0
282 60 0
282 65 0
-282 -60 -65 0
283 61 0
283 62 0
-283 -61 -62 0
284 61 0
284 63 0
-284 -61 -63 0
285 61 0
285 64 0
-285 -61 -64 0
286 61 0
286 65 0
-286 -61 -65 0
287 62 0
287 63 0
-287 -62 -63 0
288 62 0
288 64 0
-288 -62 -64 0
289 62 0
289 65 0
-289 -62 -65 0
290 63 0
290 64 0
-290 -63 -64 0
291 63 0
291 65 0
-291 -63 -65 0
292 64 0
292 65 0
-292 -64 -65 0
293 66 0
293 67 0
-293 -66 -67 0
294 66 0
294 68 0
-294 -66 -68 0
295 66 0
295 69 0
-295 -66 -69 0
296 66 0
296 70 0
-296 -66 -70 0
297 66 0
297 71 0
-297 -66 -71 0
298 66 0
298 72 0
-298 -66 -72 0
299 66 0
299 73 0
-299 -66 -73 0
300 66 0
300 74 0
-300 -66 -74 0
301 67 0
301 68 0
-301 -67 -68 0
302 67 0
302 69 0
-302 -67 -69 0
303 67 0
303 70 0
-303 -67 -70 0
304 67 0
304 71 0
-304 -67 -71 0
305 67 0
305 72 0
-305 -67 -72 0
306 67 0
306 73 0
-306 -67 -73 0
307 67 0
307 74 0
-307 -67 -74 0
308 68 0
308 69 0
-308 -68 -69 0
309 68 0
309 70 0
-309 -68 -70 0
310 68 0
310 71 0
-310 -68 -71 0
311 68 0
311 72 0
-311 -68 -72 0
312 68 0
312 73 0
-312 -68 -73 0
313 68 0
313 74 0
-313 -68 -74 0
314 69 0
314 70 0
-314 -69 -70 0
315 69 0
315 71 0
-315 -69 -71 0
316 69 0
316 72 0
-316 -69 -72 0
317 69 0
317 73 0
-317 -69 -73 0
318 69 0
318 74 0
-318 -69 -74 0
319 70 0
319 71 0
-319 -70 -71 0
320 70 0
320 72 0
-320 -70 -72 0
321 70 0
321 73 0
-321 -70 -73 0
322 70 0
322 74 0
-322 -70 -74 0
323 71 0
323 72 0
-323 -71 -72 0
324 71 0
324 73 0
-324 -71 -73 0
325 71 0
325 74 0
-325 -71 -74 0
326 72 0
326 73 0
-326 -72 -73 0
327 72 0
327 74 0
-327 -72 -74 0
328 73 0
328 74 0
-328 -73 -74 0
329 75 0
329 76 0
-329 -75 -76 0
330 75 0
330 77 0
-330 -75 -77 0
331 75 0
331 78 0
-331 -75 -78 0
332 75 0
332 79 0
-332 -75 -79 0
333 75 0
333 80 0
-333 -75 -80 0
334 75 0
334 81 0
-334 -75 -81 0
335 75 0
335 82 0
-335 -75 -82 0
336 75 0
336 83 0
-336 -75 -83 0
337 76 0
337 77 0
-337 -76 -77 0
338 76 0
338 78 0
-338 -76 -78 0
339 76 0
339 79 0
-339 -76 -79 0
340 76 0
340 80 0
-340 -76 -80 0
341 76 0
341 81 0
-341 -76 -81 0
342 76 0
342 82 0
-342 -76 -82 0
343 76 0
343 83 0
-343 -76 -83 0
344 77 0
344 78 0
-344 -77 -78 0
345 77 0
345 79 0
-345 -77 -79 0
346 77 0
346 80 0
-346 -77 -80 0
347 77 0
347 81 0
-347 -77 -81 0
348 77 0
348 82 0
-348 -77 -82 0
349 77 0
349 83 0
-349 -77 -83 0
350 78 0
350 79 0
-350 -78 -79 0
351 78 0
351 80 0
-351 -78 -80 0
352 78 0
352 81 0
-352 -78 -81 0
353 78 0
353 82 0
-353 -78 -82 0
354 78 0
354 83 0
-354 -78 -83 0
355 79 0
355 80 0
-355 -79 -80 0
356 79 0
356 81 0
-356 -79 -81 0
357 79 0
357 82 0
-357 -79 -82 0
358 79 0
358 83 0
-358 -79 -83 0
359 80 0
359 81 0
-359 -80 -81 0
360 80 0
360 82 0
-360 -80 -82 0
361 80 0
361 83 0
-361 -80 -83 0
362 81 0
362 82 0
-362 -81 -82 0
363 81 0
363 83 0
-363 -81 -83 0
364 82 0
364 83 0
-364 -82 -83 0
365 84 0
365 85 0
-365 -84 -85 0
366 84 0
366 86 0
-366 -84 -86 0
367 84 0
367 87 0
-367 -84 -87 0
368 84 0
368 88 0
-368 -84 -88 0
369 84 0
369 89 0
-369 -84 -89 0
370 84 0
370 90 0
-370 -84 -90 0
371 84 0
371 91 0
-371 -84 -91 0
372 84 0
372 92 0
-372 -84 -92 0
373 85 0
373 86 0
-373 -85 -86 0
374 85 0
374 87 0
-374 -85 -87 0
375 85 0
375 88 0
-375 -85 -88 0
376 85 0
376 89 0
-376 -85 -89 0
377 85 0
377 90 0
-377 -85 -90 0
378 85 0
378 91 0
-378 -85 -91 0
379 85 0
379 92 0
-379 -85 -92 0
380 86 0
380 87 0
-380 -86 -87 0
381 86 0
381 88 0
-381 -86 -88 0
382 86 0
382 89 0
-382 -86 -89 0
383 86 0
383 90 0
-383 -86 -90 0
384 86 0
384 91 0
-384 -86 -91 0
385 86 0
385 92 0
-385 -86 -92 0
386 87 0
386 88 0
-386 -87 -88 0
387 87 0
387 89 0
-387 -87 -89 0
388 87 0
388 90 0
-388 -87 -90 0
389 87 0
389 91 0
-389 -87 -91 0
390 87 0
390 92 0
-390 -87 -92 0
391 88 0
391 89 0
-391 -88 -89 0
392 88 0
392 90 0
-392 -88 -90 0
393 88 0
393 91 0
-393 -88 -91 0
394 88 0
394 92 0
-394 -88 -92 0
395 89 0
395 90 0
-395 -89 -90 0
396 89 0
396 91 0
-396 -89 -91 0
397 89 0
397 92 0
-397 -89 -92 0
398 90 0
398 91 0
-398 -90 -91 0
399 90 0
399 92 0
-399 -90 -92 0
400 91 0
400 92 0
-400 -91 -92 0
-401 104 0
-401 105 0
-401 106 0
-401 107 0
-401 108 0
-401 109 0
-401 110 0
-401 111 0
-401 112 0
-401 113 0
-401 114 0
-401 115 0
-401 116 0
-401 117 0
-401 118 0
-401 119 0
-401 120 0
-401 121 0
-401 122 0
-401 123 0
-401 124 0
-401 125 0
-401 126 0
-401 127 0
-401 128 0
-401 129 0
-401 130 0
-401 131 0
-401 132 0
-401 133 0
-401 134 0
-401 135 0
-401 136 0
-401 137 0
-401 138 0
-401 139 0
-401 140 0
-401 141 0
-401 142 0
-401 143 0
-401 144 0
-401 145 0
-401 146 0
-401 147 0
-401 148 0
-401 149 0
-401 150 0
-401 151 0
-401 152 0
-401 153 0
-401 154 0
-401 155 0
-401 156 0
-401 157 0
-401 158 0
-401 159 0
-401 160 0
-401 161 0
-401 162 0
-401 163 0
-401 164 0
-401 165 0
-401 166 0
-401 167 0
-401 168 0
-401 169 0
-401 170 0
-401 171 0
-401 172 0
-401 173 0
-401 174 0
-401 175 0
-401 176 0
-401 177 0
-401 178 0
-401 179 0
-401 180 0
-401 181 0
-401 182 0
-401 183 0
-401 184 0
-401 185 0
-401 186 0
-401 187 0
-401 188 0
-401 189 0
-401 190 0
-401 191 0
-401 192 0
-401 193 0
-401 194 0
-401 195 0
-401 196 0
-401 197 0
-401 198 0
-401 199 0
-401 200 0
-401 201 0
-401 202 0
-401 203 0
-401 204 0
-401 205 0
-401 206 0
-401 207 0
-401 208 0
-401 209 0
-401 210 0
-401 211 0
-401 212 0
-401 213 0
-401 214 0
-401 215 0
-401 216 0
-401 217 0
-401 218 0
-401 219 0
-401 220 0
-401 221 0
-401 222 0
-401 223 0
-401 224 0
-401 225 0
-401 226 0
-401 227 0
-401 228 0
-401 229 0
-401 230 0
-401 231 0
-401 232 0
-401 233 0
-401 234 0
-401 235 0
-401 236 0
-401 237 0
-401 238 0
-401 239 0
-401 240 0
-401 241 0
-401 242 0
-401 243 0
-401 244 0
-401 245 0
-401 246 0
-401 247 0
-401 248 0
-401 249 0
-401 250 0
-401 251 0
-401 252 0
-401 253 0
-401 254 0
-401 255 0
-401 256 0
-401 257 0
-401 258 0
-401 259 0
-401 260 0
-401 261 0
-401 262 0
-401 263 0
-401 264 0
-401 265 0
-401 266 0
-401 267 0
-401 268 0
-401 269 0
-401 270 0
-401 271 0
-401 272 0
-401 273 0
-401 274 0
-401 275 0
-401 276 0
-401 277 0
-401 278 0
-401 279 0
-401 280 0
-401 281 0
-401 282 0
-401 283 0
-401 284 0
-401 285 0
-401 286 0
-401 287 0
-401 288 0
-401 289 0
-401 290 0
-401 291 0
-401 292 0
-401 293 0
-401 294 0
-401 295 0
-401 296 0
-401 297 0
-401 298 0
-401 299 0
-401 300 0
-401 301 0
-401 302 0
-401 303 0
-401 304 0
-401 305 0
-401 306 0
-401 307 0
-401 308 0
-401 309 0
-401 310 0
-401 311 0
-401 312 0
-401 313 0
-401 314 0
-401 315 0
-401 316 0
-401 317 0
-401 318 0
-401 319 0
-401 320 0
-401 321 0
-401 322 0
-401 323 0
-401 324 0
-401 325 0
-401 326 0
-401 327 0
-401 328 0
-401 329 0
-401 330 0
-401 331 0
-401 332 0
-401 333 0
-401 334 0
-401 335 0
-401 336 0
-401 337 0
-401 338 0
-401 339 0
-401 340 0
-401 341 0
-401 342 0
-401 343 0
-401 344 0
-401 345 0
-401 346 0
-401 347 0
-401 348 0
-401 349 0
-401 350 0
-401 351 0
-401 352 0
-401 353 0
-401 354 0
-401 355 0
-401 356 0
-401 357 0
-401 358 0
-401 359 0
-401 360 0
-401 361 0
-401 362 0
-401 363 0
-401 364 0
-401 365 0
-401 366 0
-401 367 0
-401 368 0
-401 369 0
-401 370 0
-401 371 0
-401 372 0
-401 373 0
-401 374 0
-401 375 0
-401 376 0
-401 377 0
-401 378 0
-401 379 0
-401 380 0
-401 381 0
-401 382 0
-401 383 0
-401 384 0
-401 385 0
-401 386 0
-401 387 0
-401 388 0
-401 389 0
-401 390 0
-401 391 0
-401 392 0
-401 393 0
-401 394 0
-401 395 0
-401 396 0
-401 397 0
-401 398 0
-401 399 0
-401 400 0
401 -104 -105 -106 -107 -108 -109 -110 -111 -112 -113 -114 -115 -116 -117 -118 -119 -120 -121 -122 -123 -124 -125 -126 -127 -128 -129 -130 -131 -132 -133 -134 -135 -136 -137 -138 -139 -140 -141 -142 -143 -144 -145 -146 -147 -148 -149 -150 -151 -152 -153 -154 -155 -156 -157 -158 -159 -160 -161 -162 -163 -164 -165 -166 -167 -168 -169 -170 -171 -172 -173 -174 -175 -176 -177 -178 -179 -180 -181 -182 -183 -184 -185 -186 -187 -188 -189 -190 -191 -192 -193 -194 -195 -196 -197 -198 -199 -200 -201 -202 -203 -204 -205 -206 -207 -208 -209 -210 -211 -212 -213 -214 -215 -216 -217 -218 -219 -220 -221 -222 -223 -224 -225 -226 -227 -228 -229 -230 -231 -232 -233 -234 -235 -236 -237 -238 -239 -240 -241 -242 -243 -244 -245 -246 -247 -248 -249 -250 -251 -252 -253 -254 -255 -256 -257 -258 -259 -260 -261 -262 -263 -264 -265 -266 -267 -268 -269 -270 -271 -272 -273 -274 -275 -276 -277 -278 -279 -280 -281 -282 -283 -284 -285 -286 -287 -288 -289 -290 -291 -292 -293 -294 -295 -296 -297 -298 -299 -300 -301 -302 -303 -304 -305 -306 -307 -308 -309 -310 -311 -312 -313 -314 -315 -316 -317 -318 -319 -320 -321 -322 -323 -324 -325 -326 -327 -328 -329 -330 -331 -332 -333 -334 -335 -336 -337 -338 -339 -340 -341 -342 -343 -344 -345 -346 -347 -348 -349 -350 -351 -352 -353 -354 -355 -356 -357 -358 -359 -360 -361 -362 -363 -364 -365 -366 -367 -368 -369 -370 -371 -372 -373 -374 -375 -376 -377 -378 -379 -380 -381 -382 -383 -384 -385 -386 -387 -388 -389 -390 -391 -392 -393 -394 -395 -396 -397 -398 -399 -400 0
-401 0
